200 782 
1 5 1
1 7 1
1 9 1
1 10 1
1 14 1
1 15 1
1 18 1
1 79 1
1 146 1
1 165 1
1 166 1
1 180 1
1 185 1
1 187 1
1 190 1
1 198 1
2 5 1
2 6 1
2 8 1
2 14 1
2 26 1
2 35 1
2 37 1
2 55 1
2 63 1
2 69 1
2 70 1
2 98 1
2 118 1
2 140 1
2 146 1
2 149 1
2 172 1
2 186 1
3 5 1
3 6 1
3 7 1
3 8 1
3 11 1
3 12 1
3 13 1
3 14 1
3 15 1
3 16 1
3 19 1
3 21 1
3 23 1
3 24 1
3 35 1
3 37 1
3 40 1
3 41 1
3 42 1
3 53 1
3 59 1
3 62 1
3 65 1
3 80 1
3 94 1
3 99 1
3 105 1
3 113 1
3 127 1
3 128 1
3 145 1
3 156 1
3 184 1
3 186 1
3 187 1
3 197 1
4 5 1
4 6 1
4 15 1
4 18 1
4 38 1
4 45 1
4 46 1
4 66 1
4 83 1
4 88 1
4 96 1
4 108 1
4 112 1
4 116 1
4 189 1
5 6 1
5 7 1
5 8 1
5 10 1
5 15 1
5 17 1
5 18 1
5 20 1
5 23 1
5 28 1
5 29 1
5 32 1
5 39 1
5 43 1
5 46 1
5 49 1
5 50 1
5 57 1
5 62 1
5 63 1
5 64 1
5 65 1
5 69 1
5 71 1
5 73 1
5 89 1
5 92 1
5 117 1
5 118 1
5 126 1
5 132 1
5 134 1
5 138 1
5 145 1
5 150 1
5 151 1
5 157 1
5 163 1
5 174 1
5 191 1
5 197 1
6 7 1
6 8 1
6 9 1
6 11 1
6 13 1
6 16 1
6 25 1
6 41 1
6 42 1
6 44 1
6 50 1
6 58 1
6 61 1
6 63 1
6 75 1
6 79 1
6 83 1
6 86 1
6 88 1
6 111 1
6 125 1
6 134 1
6 144 1
6 152 1
6 160 1
6 162 1
6 196 1
6 197 1
7 9 1
7 10 1
7 11 1
7 12 1
7 13 1
7 16 1
7 17 1
7 19 1
7 20 1
7 24 1
7 25 1
7 30 1
7 34 1
7 36 1
7 39 1
7 43 1
7 49 1
7 77 1
7 80 1
7 97 1
7 100 1
7 108 1
7 111 1
7 117 1
7 120 1
7 171 1
7 183 1
7 187 1
8 10 1
8 11 1
8 37 1
8 72 1
8 123 1
8 184 1
9 12 1
9 13 1
9 21 1
9 22 1
9 28 1
9 31 1
9 37 1
9 49 1
9 82 1
9 85 1
9 90 1
9 107 1
9 111 1
9 135 1
9 141 1
9 150 1
9 170 1
9 178 1
9 180 1
9 190 1
10 14 1
10 19 1
10 21 1
10 23 1
10 26 1
10 33 1
10 35 1
10 36 1
10 41 1
10 43 1
10 44 1
10 72 1
10 74 1
10 77 1
10 95 1
10 97 1
10 104 1
10 114 1
10 133 1
10 136 1
10 146 1
10 168 1
10 176 1
10 182 1
11 12 1
11 21 1
11 28 1
11 39 1
11 45 1
11 56 1
11 57 1
11 65 1
11 76 1
11 117 1
11 128 1
11 148 1
11 175 1
11 184 1
11 197 1
12 17 1
12 27 1
12 31 1
12 43 1
12 45 1
12 51 1
12 53 1
12 60 1
12 67 1
12 68 1
12 75 1
12 84 1
12 92 1
12 101 1
12 113 1
12 119 1
12 127 1
12 141 1
12 144 1
12 157 1
12 162 1
12 165 1
12 171 1
12 186 1
13 16 1
13 17 1
13 22 1
13 24 1
13 36 1
13 48 1
13 61 1
13 64 1
13 76 1
13 79 1
13 84 1
13 91 1
13 102 1
13 103 1
13 104 1
13 143 1
13 171 1
13 182 1
13 198 1
14 20 1
14 22 1
14 24 1
14 27 1
14 29 1
14 30 1
14 32 1
14 40 1
14 44 1
14 56 1
14 70 1
14 71 1
14 80 1
14 82 1
14 86 1
14 87 1
14 95 1
14 103 1
14 114 1
14 123 1
14 124 1
14 128 1
14 131 1
14 132 1
14 136 1
14 143 1
14 154 1
14 157 1
14 160 1
14 171 1
14 181 1
15 30 1
15 35 1
15 41 1
15 52 1
15 60 1
15 70 1
15 94 1
15 120 1
15 129 1
15 130 1
15 167 1
15 172 1
16 25 1
16 29 1
16 38 1
16 53 1
16 58 1
16 66 1
16 74 1
16 82 1
16 93 1
16 98 1
16 100 1
16 105 1
16 151 1
16 172 1
16 173 1
17 18 1
17 19 1
17 20 1
17 27 1
17 34 1
17 58 1
17 59 1
17 64 1
17 66 1
17 75 1
17 76 1
17 95 1
17 107 1
17 121 1
17 125 1
17 149 1
17 152 1
17 174 1
17 199 1
18 30 1
18 32 1
18 48 1
18 94 1
18 137 1
18 166 1
19 22 1
19 31 1
19 49 1
19 121 1
19 123 1
19 126 1
19 154 1
20 34 1
20 42 1
20 47 1
20 52 1
20 54 1
20 78 1
20 97 1
20 142 1
20 190 1
21 23 1
21 28 1
21 33 1
21 45 1
21 62 1
21 63 1
21 78 1
21 80 1
21 110 1
21 159 1
21 200 1
22 25 1
22 39 1
22 47 1
22 59 1
22 74 1
22 96 1
22 104 1
22 109 1
22 118 1
22 126 1
22 132 1
22 138 1
22 150 1
22 164 1
22 175 1
22 196 1
23 26 1
23 33 1
23 34 1
23 72 1
23 82 1
23 87 1
23 90 1
24 38 1
24 48 1
24 56 1
24 65 1
24 70 1
24 113 1
24 115 1
24 147 1
24 183 1
25 33 1
25 53 1
25 57 1
25 60 1
25 64 1
25 88 1
25 154 1
25 170 1
25 179 1
25 188 1
26 27 1
26 29 1
26 36 1
26 38 1
26 61 1
26 67 1
26 91 1
26 103 1
26 160 1
27 31 1
27 42 1
27 50 1
27 58 1
27 69 1
27 95 1
27 173 1
27 199 1
28 52 1
28 54 1
28 101 1
28 105 1
28 136 1
28 168 1
29 32 1
29 40 1
29 51 1
29 55 1
29 81 1
29 116 1
29 126 1
29 129 1
29 147 1
29 159 1
29 168 1
29 187 1
30 44 1
30 66 1
30 133 1
30 173 1
32 46 1
33 47 1
33 48 1
33 90 1
33 133 1
33 155 1
33 158 1
33 177 1
33 194 1
34 40 1
34 68 1
34 85 1
34 102 1
34 135 1
34 138 1
34 142 1
34 145 1
34 152 1
34 173 1
34 183 1
35 151 1
35 179 1
36 111 1
37 56 1
37 59 1
38 46 1
38 47 1
38 84 1
38 85 1
38 96 1
38 130 1
38 138 1
38 183 1
38 194 1
39 106 1
39 175 1
40 76 1
40 93 1
40 191 1
41 200 1
42 51 1
42 68 1
42 112 1
42 131 1
43 62 1
43 81 1
43 83 1
43 119 1
43 147 1
43 160 1
43 163 1
43 178 1
43 193 1
44 54 1
44 57 1
44 71 1
44 81 1
44 86 1
44 134 1
44 142 1
44 155 1
44 158 1
45 74 1
46 91 1
46 102 1
46 112 1
46 122 1
46 124 1
46 142 1
47 52 1
47 86 1
47 101 1
47 106 1
47 145 1
48 54 1
48 55 1
48 67 1
48 73 1
48 109 1
48 141 1
49 50 1
49 67 1
50 51 1
50 75 1
50 89 1
50 110 1
50 112 1
51 60 1
51 68 1
51 100 1
51 200 1
52 55 1
53 83 1
53 120 1
53 157 1
54 135 1
54 159 1
55 61 1
55 87 1
55 127 1
56 69 1
56 107 1
56 121 1
56 124 1
57 108 1
57 128 1
57 167 1
57 192 1
58 84 1
60 77 1
60 81 1
60 88 1
60 89 1
60 153 1
60 192 1
61 71 1
61 72 1
61 73 1
61 79 1
61 87 1
61 105 1
61 109 1
61 154 1
61 191 1
62 85 1
62 140 1
62 163 1
63 78 1
63 104 1
63 169 1
64 73 1
64 93 1
64 114 1
64 123 1
64 137 1
64 161 1
64 170 1
64 172 1
65 179 1
66 99 1
66 110 1
66 139 1
66 169 1
66 185 1
67 90 1
67 139 1
68 92 1
70 77 1
70 108 1
70 152 1
71 89 1
71 98 1
71 194 1
72 91 1
73 164 1
74 93 1
74 107 1
74 109 1
74 135 1
74 139 1
74 174 1
75 113 1
75 125 1
75 162 1
75 190 1
76 78 1
76 106 1
76 125 1
76 176 1
76 192 1
77 92 1
77 102 1
77 149 1
77 153 1
77 180 1
78 133 1
79 177 1
80 94 1
80 106 1
80 131 1
81 98 1
81 140 1
81 155 1
82 100 1
82 122 1
82 140 1
82 144 1
82 167 1
82 188 1
85 99 1
85 120 1
86 115 1
86 122 1
86 130 1
86 131 1
86 200 1
87 110 1
89 181 1
89 182 1
92 97 1
92 150 1
92 164 1
94 103 1
95 96 1
95 101 1
97 99 1
97 184 1
98 155 1
99 151 1
99 158 1
100 156 1
100 198 1
101 115 1
101 116 1
102 119 1
103 129 1
103 137 1
103 148 1
104 115 1
104 119 1
104 121 1
104 127 1
104 188 1
105 181 1
106 114 1
106 118 1
106 189 1
106 195 1
108 129 1
109 156 1
111 117 1
111 124 1
111 156 1
112 122 1
112 141 1
112 181 1
114 136 1
114 195 1
115 116 1
115 170 1
117 137 1
117 139 1
117 143 1
117 153 1
117 186 1
118 134 1
118 161 1
118 163 1
118 165 1
118 195 1
119 143 1
121 189 1
122 167 1
122 178 1
122 198 1
123 161 1
124 148 1
124 180 1
128 192 1
129 130 1
131 132 1
131 189 1
132 179 1
132 182 1
134 185 1
136 176 1
137 162 1
138 165 1
138 169 1
138 196 1
138 199 1
139 144 1
139 146 1
139 148 1
142 147 1
143 175 1
145 153 1
146 149 1
147 158 1
147 166 1
148 193 1
151 161 1
153 159 1
155 169 1
155 177 1
156 178 1
156 196 1
157 164 1
161 166 1
165 199 1
167 168 1
168 176 1
170 174 1
174 193 1
175 177 1
180 194 1
181 188 1
184 185 1
184 191 1
184 193 1
189 195 1
